
;this file is automatically generated: Tue Feb 23 13:37:59 CST 2021

;declarations generated

(declare-fun oclExcludes ( Int Int) Bool)
(declare-fun Cardinality ( Int) Int)
(declare-fun class0_Class0IntAttr3 ( Int) Int)
(declare-fun class0_Class0IntAttr4 ( Int) Int)
(declare-fun oclSelect ( Int Bool) Int)
(declare-fun type_c443080f_affe_472f_bf20_1b33a2fb75f5_Class10 ( Int) Bool)
(declare-fun type_c443080f_affe_472f_bf20_1b33a2fb75f5_Class13 ( Int) Bool)
(declare-fun type_c443080f_affe_472f_bf20_1b33a2fb75f5_Class14 ( Int) Bool)
(declare-fun type_c443080f_affe_472f_bf20_1b33a2fb75f5_Class11 ( Int) Bool)
(declare-fun type_c443080f_affe_472f_bf20_1b33a2fb75f5_Class12 ( Int) Bool)
(declare-fun type_c443080f_affe_472f_bf20_1b33a2fb75f5_Class17 ( Int) Bool)
(declare-fun type_c443080f_affe_472f_bf20_1b33a2fb75f5_Class18 ( Int) Bool)
(declare-fun type_c443080f_affe_472f_bf20_1b33a2fb75f5_Class15 ( Int) Bool)
(declare-fun type_c443080f_affe_472f_bf20_1b33a2fb75f5_Class16 ( Int) Bool)
(declare-fun type_c443080f_affe_472f_bf20_1b33a2fb75f5_Class19 ( Int) Bool)
(declare-fun obj_460c7589_6272_4607_a579_9ee515c92732 ( Int) Int)
(declare-fun type_c443080f_affe_472f_bf20_1b33a2fb75f5_Class42 ( Int) Bool)
(declare-fun type_c443080f_affe_472f_bf20_1b33a2fb75f5_Class43 ( Int) Bool)
(declare-fun type_c443080f_affe_472f_bf20_1b33a2fb75f5_Class40 ( Int) Bool)
(declare-fun type_c443080f_affe_472f_bf20_1b33a2fb75f5_Class41 ( Int) Bool)
(declare-fun type_c443080f_affe_472f_bf20_1b33a2fb75f5_Class44 ( Int) Bool)
(declare-fun type_c443080f_affe_472f_bf20_1b33a2fb75f5_Class45 ( Int) Bool)
(declare-fun Enum0 ( Int) Int)
(declare-fun Enum1 ( Int) Int)
(declare-fun Enum2 ( Int) Int)
(declare-fun type_c443080f_affe_472f_bf20_1b33a2fb75f5_Class31 ( Int) Bool)
(declare-fun type_c443080f_affe_472f_bf20_1b33a2fb75f5_Class32 ( Int) Bool)
(declare-fun type_c443080f_affe_472f_bf20_1b33a2fb75f5_Class30 ( Int) Bool)
(declare-fun type_c443080f_affe_472f_bf20_1b33a2fb75f5_Class35 ( Int) Bool)
(declare-fun type_c443080f_affe_472f_bf20_1b33a2fb75f5_Class36 ( Int) Bool)
(declare-fun type_c443080f_affe_472f_bf20_1b33a2fb75f5_Class33 ( Int) Bool)
(declare-fun type_c443080f_affe_472f_bf20_1b33a2fb75f5_Class34 ( Int) Bool)
(declare-fun type_c443080f_affe_472f_bf20_1b33a2fb75f5_Class39 ( Int) Bool)
(declare-fun type_c443080f_affe_472f_bf20_1b33a2fb75f5_Class37 ( Int) Bool)
(declare-fun type_c443080f_affe_472f_bf20_1b33a2fb75f5_Class38 ( Int) Bool)
(declare-fun container_ ( Int) Int)
(declare-fun type_c443080f_affe_472f_bf20_1b33a2fb75f5_Class20 ( Int) Bool)
(declare-fun type_c443080f_affe_472f_bf20_1b33a2fb75f5_Class21 ( Int) Bool)
(declare-fun type_c443080f_affe_472f_bf20_1b33a2fb75f5_Class24 ( Int) Bool)
(declare-fun type_c443080f_affe_472f_bf20_1b33a2fb75f5_Class25 ( Int) Bool)
(declare-fun type_c443080f_affe_472f_bf20_1b33a2fb75f5_Class22 ( Int) Bool)
(declare-fun type_c443080f_affe_472f_bf20_1b33a2fb75f5_Class23 ( Int) Bool)
(declare-fun type_c443080f_affe_472f_bf20_1b33a2fb75f5_Class28 ( Int) Bool)
(declare-fun type_c443080f_affe_472f_bf20_1b33a2fb75f5_Class29 ( Int) Bool)
(declare-fun type_c443080f_affe_472f_bf20_1b33a2fb75f5_Class26 ( Int) Bool)
(declare-fun type_c443080f_affe_472f_bf20_1b33a2fb75f5_Class27 ( Int) Bool)
(declare-fun oclIncludes ( Int Int) Bool)
(declare-fun type_c443080f_affe_472f_bf20_1b33a2fb75f5_Class8 ( Int) Bool)
(declare-fun type_c443080f_affe_472f_bf20_1b33a2fb75f5_Class9 ( Int) Bool)
(declare-fun type_c443080f_affe_472f_bf20_1b33a2fb75f5_Class0 ( Int) Bool)
(declare-fun type_c443080f_affe_472f_bf20_1b33a2fb75f5_Class1 ( Int) Bool)
(declare-fun type_c443080f_affe_472f_bf20_1b33a2fb75f5_Class2 ( Int) Bool)
(declare-fun type_c443080f_affe_472f_bf20_1b33a2fb75f5_Class3 ( Int) Bool)
(declare-fun type_c443080f_affe_472f_bf20_1b33a2fb75f5_Class4 ( Int) Bool)
(declare-fun type_c443080f_affe_472f_bf20_1b33a2fb75f5_Class5 ( Int) Bool)
(declare-fun type_c443080f_affe_472f_bf20_1b33a2fb75f5_Class6 ( Int) Bool)
(declare-fun type_c443080f_affe_472f_bf20_1b33a2fb75f5_Class7 ( Int) Bool)
(declare-fun ObjAt ( Int Int) Int)

;formula(s) generated
(assert (! (forall ((c0_1 Int)(c0_2 Int)) (=> (and (and (and (and ( type_c443080f_affe_472f_bf20_1b33a2fb75f5_Class0 c0_1 )  ( type_c443080f_affe_472f_bf20_1b33a2fb75f5_Class22 c0_1 ) ) ( type_c443080f_affe_472f_bf20_1b33a2fb75f5_Class35 c0_1 ) ) ( type_c443080f_affe_472f_bf20_1b33a2fb75f5_Class2 c0_1 ) ) (and (and (and ( type_c443080f_affe_472f_bf20_1b33a2fb75f5_Class0 c0_2 )  ( type_c443080f_affe_472f_bf20_1b33a2fb75f5_Class22 c0_2 ) ) ( type_c443080f_affe_472f_bf20_1b33a2fb75f5_Class35 c0_2 ) ) ( type_c443080f_affe_472f_bf20_1b33a2fb75f5_Class2 c0_2 ) )) (<= ( class0_Class0IntAttr4 ( obj_460c7589_6272_4607_a579_9ee515c92732 c0_1 )  )  ( class0_Class0IntAttr3 ( obj_460c7589_6272_4607_a579_9ee515c92732 c0_2 )  ) ))):named l0))
(assert (! (forall ((v Int)) (=> (and (and (and ( type_c443080f_affe_472f_bf20_1b33a2fb75f5_Class0 v )  ( type_c443080f_affe_472f_bf20_1b33a2fb75f5_Class22 v ) ) ( type_c443080f_affe_472f_bf20_1b33a2fb75f5_Class35 v ) ) ( type_c443080f_affe_472f_bf20_1b33a2fb75f5_Class2 v ) ) (> ( class0_Class0IntAttr3 ( obj_460c7589_6272_4607_a579_9ee515c92732 v )  )  8))):named l1))
(assert (! (exists ((o Int)) (and (and (and ( type_c443080f_affe_472f_bf20_1b33a2fb75f5_Class0 ( obj_460c7589_6272_4607_a579_9ee515c92732 o )  )  ( type_c443080f_affe_472f_bf20_1b33a2fb75f5_Class22 ( obj_460c7589_6272_4607_a579_9ee515c92732 o )  ) ) ( type_c443080f_affe_472f_bf20_1b33a2fb75f5_Class35 ( obj_460c7589_6272_4607_a579_9ee515c92732 o )  ) ) ( type_c443080f_affe_472f_bf20_1b33a2fb75f5_Class2 ( obj_460c7589_6272_4607_a579_9ee515c92732 o )  ) )):named c0))
(assert (! (exists ((o Int)) ( type_c443080f_affe_472f_bf20_1b33a2fb75f5_Class1 ( obj_460c7589_6272_4607_a579_9ee515c92732 o )  ) ):named c1))
(assert (! (exists ((o Int)) (and (and (and (and ( type_c443080f_affe_472f_bf20_1b33a2fb75f5_Class10 ( obj_460c7589_6272_4607_a579_9ee515c92732 o )  )  ( type_c443080f_affe_472f_bf20_1b33a2fb75f5_Class16 ( obj_460c7589_6272_4607_a579_9ee515c92732 o )  ) ) ( type_c443080f_affe_472f_bf20_1b33a2fb75f5_Class15 ( obj_460c7589_6272_4607_a579_9ee515c92732 o )  ) ) ( type_c443080f_affe_472f_bf20_1b33a2fb75f5_Class41 ( obj_460c7589_6272_4607_a579_9ee515c92732 o )  ) ) ( type_c443080f_affe_472f_bf20_1b33a2fb75f5_Class2 ( obj_460c7589_6272_4607_a579_9ee515c92732 o )  ) )):named c2))
(assert (! (exists ((o Int)) ( type_c443080f_affe_472f_bf20_1b33a2fb75f5_Class11 ( obj_460c7589_6272_4607_a579_9ee515c92732 o )  ) ):named c3))
(assert (! (exists ((o Int)) (and (and (and (and ( type_c443080f_affe_472f_bf20_1b33a2fb75f5_Class12 ( obj_460c7589_6272_4607_a579_9ee515c92732 o )  )  ( type_c443080f_affe_472f_bf20_1b33a2fb75f5_Class22 ( obj_460c7589_6272_4607_a579_9ee515c92732 o )  ) ) ( type_c443080f_affe_472f_bf20_1b33a2fb75f5_Class35 ( obj_460c7589_6272_4607_a579_9ee515c92732 o )  ) ) ( type_c443080f_affe_472f_bf20_1b33a2fb75f5_Class0 ( obj_460c7589_6272_4607_a579_9ee515c92732 o )  ) ) ( type_c443080f_affe_472f_bf20_1b33a2fb75f5_Class2 ( obj_460c7589_6272_4607_a579_9ee515c92732 o )  ) )):named c4))
(assert (! (exists ((o Int)) (and (and (and ( type_c443080f_affe_472f_bf20_1b33a2fb75f5_Class13 ( obj_460c7589_6272_4607_a579_9ee515c92732 o )  )  ( type_c443080f_affe_472f_bf20_1b33a2fb75f5_Class16 ( obj_460c7589_6272_4607_a579_9ee515c92732 o )  ) ) ( type_c443080f_affe_472f_bf20_1b33a2fb75f5_Class15 ( obj_460c7589_6272_4607_a579_9ee515c92732 o )  ) ) ( type_c443080f_affe_472f_bf20_1b33a2fb75f5_Class2 ( obj_460c7589_6272_4607_a579_9ee515c92732 o )  ) )):named c5))
(assert (! (exists ((o Int)) (and (and (and (and (and (and (and ( type_c443080f_affe_472f_bf20_1b33a2fb75f5_Class14 ( obj_460c7589_6272_4607_a579_9ee515c92732 o )  )  ( type_c443080f_affe_472f_bf20_1b33a2fb75f5_Class33 ( obj_460c7589_6272_4607_a579_9ee515c92732 o )  ) ) ( type_c443080f_affe_472f_bf20_1b33a2fb75f5_Class13 ( obj_460c7589_6272_4607_a579_9ee515c92732 o )  ) ) ( type_c443080f_affe_472f_bf20_1b33a2fb75f5_Class16 ( obj_460c7589_6272_4607_a579_9ee515c92732 o )  ) ) ( type_c443080f_affe_472f_bf20_1b33a2fb75f5_Class15 ( obj_460c7589_6272_4607_a579_9ee515c92732 o )  ) ) ( type_c443080f_affe_472f_bf20_1b33a2fb75f5_Class4 ( obj_460c7589_6272_4607_a579_9ee515c92732 o )  ) ) ( type_c443080f_affe_472f_bf20_1b33a2fb75f5_Class41 ( obj_460c7589_6272_4607_a579_9ee515c92732 o )  ) ) ( type_c443080f_affe_472f_bf20_1b33a2fb75f5_Class2 ( obj_460c7589_6272_4607_a579_9ee515c92732 o )  ) )):named c6))
(assert (! (exists ((o Int)) (and ( type_c443080f_affe_472f_bf20_1b33a2fb75f5_Class15 ( obj_460c7589_6272_4607_a579_9ee515c92732 o )  )  ( type_c443080f_affe_472f_bf20_1b33a2fb75f5_Class2 ( obj_460c7589_6272_4607_a579_9ee515c92732 o )  ) )):named c7))
(assert (! (exists ((o Int)) (and (and ( type_c443080f_affe_472f_bf20_1b33a2fb75f5_Class16 ( obj_460c7589_6272_4607_a579_9ee515c92732 o )  )  ( type_c443080f_affe_472f_bf20_1b33a2fb75f5_Class15 ( obj_460c7589_6272_4607_a579_9ee515c92732 o )  ) ) ( type_c443080f_affe_472f_bf20_1b33a2fb75f5_Class2 ( obj_460c7589_6272_4607_a579_9ee515c92732 o )  ) )):named c8))
(assert (! (exists ((o Int)) (and (and (and (and ( type_c443080f_affe_472f_bf20_1b33a2fb75f5_Class17 ( obj_460c7589_6272_4607_a579_9ee515c92732 o )  )  ( type_c443080f_affe_472f_bf20_1b33a2fb75f5_Class24 ( obj_460c7589_6272_4607_a579_9ee515c92732 o )  ) ) ( type_c443080f_affe_472f_bf20_1b33a2fb75f5_Class26 ( obj_460c7589_6272_4607_a579_9ee515c92732 o )  ) ) ( type_c443080f_affe_472f_bf20_1b33a2fb75f5_Class32 ( obj_460c7589_6272_4607_a579_9ee515c92732 o )  ) ) ( type_c443080f_affe_472f_bf20_1b33a2fb75f5_Class2 ( obj_460c7589_6272_4607_a579_9ee515c92732 o )  ) )):named c9))
(assert (! (exists ((o Int)) ( type_c443080f_affe_472f_bf20_1b33a2fb75f5_Class18 ( obj_460c7589_6272_4607_a579_9ee515c92732 o )  ) ):named c10))
(assert (! (exists ((o Int)) ( type_c443080f_affe_472f_bf20_1b33a2fb75f5_Class19 ( obj_460c7589_6272_4607_a579_9ee515c92732 o )  ) ):named c11))
(assert (! (exists ((o Int)) ( type_c443080f_affe_472f_bf20_1b33a2fb75f5_Class2 ( obj_460c7589_6272_4607_a579_9ee515c92732 o )  ) ):named c12))
(assert (! (exists ((o Int)) (and (and ( type_c443080f_affe_472f_bf20_1b33a2fb75f5_Class20 ( obj_460c7589_6272_4607_a579_9ee515c92732 o )  )  ( type_c443080f_affe_472f_bf20_1b33a2fb75f5_Class21 ( obj_460c7589_6272_4607_a579_9ee515c92732 o )  ) ) ( type_c443080f_affe_472f_bf20_1b33a2fb75f5_Class2 ( obj_460c7589_6272_4607_a579_9ee515c92732 o )  ) )):named c13))
(assert (! (exists ((o Int)) (and ( type_c443080f_affe_472f_bf20_1b33a2fb75f5_Class21 ( obj_460c7589_6272_4607_a579_9ee515c92732 o )  )  ( type_c443080f_affe_472f_bf20_1b33a2fb75f5_Class2 ( obj_460c7589_6272_4607_a579_9ee515c92732 o )  ) )):named c14))
(assert (! (exists ((o Int)) (and (and ( type_c443080f_affe_472f_bf20_1b33a2fb75f5_Class22 ( obj_460c7589_6272_4607_a579_9ee515c92732 o )  )  ( type_c443080f_affe_472f_bf20_1b33a2fb75f5_Class35 ( obj_460c7589_6272_4607_a579_9ee515c92732 o )  ) ) ( type_c443080f_affe_472f_bf20_1b33a2fb75f5_Class2 ( obj_460c7589_6272_4607_a579_9ee515c92732 o )  ) )):named c15))
(assert (! (exists ((o Int)) (and (and (and (and (and (and ( type_c443080f_affe_472f_bf20_1b33a2fb75f5_Class23 ( obj_460c7589_6272_4607_a579_9ee515c92732 o )  )  ( type_c443080f_affe_472f_bf20_1b33a2fb75f5_Class12 ( obj_460c7589_6272_4607_a579_9ee515c92732 o )  ) ) ( type_c443080f_affe_472f_bf20_1b33a2fb75f5_Class22 ( obj_460c7589_6272_4607_a579_9ee515c92732 o )  ) ) ( type_c443080f_affe_472f_bf20_1b33a2fb75f5_Class25 ( obj_460c7589_6272_4607_a579_9ee515c92732 o )  ) ) ( type_c443080f_affe_472f_bf20_1b33a2fb75f5_Class35 ( obj_460c7589_6272_4607_a579_9ee515c92732 o )  ) ) ( type_c443080f_affe_472f_bf20_1b33a2fb75f5_Class0 ( obj_460c7589_6272_4607_a579_9ee515c92732 o )  ) ) ( type_c443080f_affe_472f_bf20_1b33a2fb75f5_Class2 ( obj_460c7589_6272_4607_a579_9ee515c92732 o )  ) )):named c16))
(assert (! (exists ((o Int)) (and (and (and ( type_c443080f_affe_472f_bf20_1b33a2fb75f5_Class24 ( obj_460c7589_6272_4607_a579_9ee515c92732 o )  )  ( type_c443080f_affe_472f_bf20_1b33a2fb75f5_Class26 ( obj_460c7589_6272_4607_a579_9ee515c92732 o )  ) ) ( type_c443080f_affe_472f_bf20_1b33a2fb75f5_Class32 ( obj_460c7589_6272_4607_a579_9ee515c92732 o )  ) ) ( type_c443080f_affe_472f_bf20_1b33a2fb75f5_Class2 ( obj_460c7589_6272_4607_a579_9ee515c92732 o )  ) )):named c17))
(assert (! (exists ((o Int)) (and (and (and (and (and ( type_c443080f_affe_472f_bf20_1b33a2fb75f5_Class25 ( obj_460c7589_6272_4607_a579_9ee515c92732 o )  )  ( type_c443080f_affe_472f_bf20_1b33a2fb75f5_Class12 ( obj_460c7589_6272_4607_a579_9ee515c92732 o )  ) ) ( type_c443080f_affe_472f_bf20_1b33a2fb75f5_Class22 ( obj_460c7589_6272_4607_a579_9ee515c92732 o )  ) ) ( type_c443080f_affe_472f_bf20_1b33a2fb75f5_Class35 ( obj_460c7589_6272_4607_a579_9ee515c92732 o )  ) ) ( type_c443080f_affe_472f_bf20_1b33a2fb75f5_Class0 ( obj_460c7589_6272_4607_a579_9ee515c92732 o )  ) ) ( type_c443080f_affe_472f_bf20_1b33a2fb75f5_Class2 ( obj_460c7589_6272_4607_a579_9ee515c92732 o )  ) )):named c18))
(assert (! (exists ((o Int)) (and (and ( type_c443080f_affe_472f_bf20_1b33a2fb75f5_Class26 ( obj_460c7589_6272_4607_a579_9ee515c92732 o )  )  ( type_c443080f_affe_472f_bf20_1b33a2fb75f5_Class32 ( obj_460c7589_6272_4607_a579_9ee515c92732 o )  ) ) ( type_c443080f_affe_472f_bf20_1b33a2fb75f5_Class2 ( obj_460c7589_6272_4607_a579_9ee515c92732 o )  ) )):named c19))
(assert (! (exists ((o Int)) (and ( type_c443080f_affe_472f_bf20_1b33a2fb75f5_Class27 ( obj_460c7589_6272_4607_a579_9ee515c92732 o )  )  ( type_c443080f_affe_472f_bf20_1b33a2fb75f5_Class2 ( obj_460c7589_6272_4607_a579_9ee515c92732 o )  ) )):named c20))
(assert (! (exists ((o Int)) ( type_c443080f_affe_472f_bf20_1b33a2fb75f5_Class28 ( obj_460c7589_6272_4607_a579_9ee515c92732 o )  ) ):named c21))
(assert (! (exists ((o Int)) ( type_c443080f_affe_472f_bf20_1b33a2fb75f5_Class29 ( obj_460c7589_6272_4607_a579_9ee515c92732 o )  ) ):named c22))
(assert (! (exists ((o Int)) ( type_c443080f_affe_472f_bf20_1b33a2fb75f5_Class3 ( obj_460c7589_6272_4607_a579_9ee515c92732 o )  ) ):named c23))
(assert (! (exists ((o Int)) (and ( type_c443080f_affe_472f_bf20_1b33a2fb75f5_Class30 ( obj_460c7589_6272_4607_a579_9ee515c92732 o )  )  ( type_c443080f_affe_472f_bf20_1b33a2fb75f5_Class2 ( obj_460c7589_6272_4607_a579_9ee515c92732 o )  ) )):named c24))
(assert (! (exists ((o Int)) (and (and (and (and ( type_c443080f_affe_472f_bf20_1b33a2fb75f5_Class31 ( obj_460c7589_6272_4607_a579_9ee515c92732 o )  )  ( type_c443080f_affe_472f_bf20_1b33a2fb75f5_Class16 ( obj_460c7589_6272_4607_a579_9ee515c92732 o )  ) ) ( type_c443080f_affe_472f_bf20_1b33a2fb75f5_Class15 ( obj_460c7589_6272_4607_a579_9ee515c92732 o )  ) ) ( type_c443080f_affe_472f_bf20_1b33a2fb75f5_Class41 ( obj_460c7589_6272_4607_a579_9ee515c92732 o )  ) ) ( type_c443080f_affe_472f_bf20_1b33a2fb75f5_Class2 ( obj_460c7589_6272_4607_a579_9ee515c92732 o )  ) )):named c25))
(assert (! (exists ((o Int)) (and ( type_c443080f_affe_472f_bf20_1b33a2fb75f5_Class32 ( obj_460c7589_6272_4607_a579_9ee515c92732 o )  )  ( type_c443080f_affe_472f_bf20_1b33a2fb75f5_Class2 ( obj_460c7589_6272_4607_a579_9ee515c92732 o )  ) )):named c26))
(assert (! (exists ((o Int)) (and (and (and (and (and ( type_c443080f_affe_472f_bf20_1b33a2fb75f5_Class33 ( obj_460c7589_6272_4607_a579_9ee515c92732 o )  )  ( type_c443080f_affe_472f_bf20_1b33a2fb75f5_Class13 ( obj_460c7589_6272_4607_a579_9ee515c92732 o )  ) ) ( type_c443080f_affe_472f_bf20_1b33a2fb75f5_Class16 ( obj_460c7589_6272_4607_a579_9ee515c92732 o )  ) ) ( type_c443080f_affe_472f_bf20_1b33a2fb75f5_Class15 ( obj_460c7589_6272_4607_a579_9ee515c92732 o )  ) ) ( type_c443080f_affe_472f_bf20_1b33a2fb75f5_Class41 ( obj_460c7589_6272_4607_a579_9ee515c92732 o )  ) ) ( type_c443080f_affe_472f_bf20_1b33a2fb75f5_Class2 ( obj_460c7589_6272_4607_a579_9ee515c92732 o )  ) )):named c27))
(assert (! (exists ((o Int)) ( type_c443080f_affe_472f_bf20_1b33a2fb75f5_Class34 ( obj_460c7589_6272_4607_a579_9ee515c92732 o )  ) ):named c28))
(assert (! (exists ((o Int)) (and ( type_c443080f_affe_472f_bf20_1b33a2fb75f5_Class35 ( obj_460c7589_6272_4607_a579_9ee515c92732 o )  )  ( type_c443080f_affe_472f_bf20_1b33a2fb75f5_Class2 ( obj_460c7589_6272_4607_a579_9ee515c92732 o )  ) )):named c29))
(assert (! (exists ((o Int)) ( type_c443080f_affe_472f_bf20_1b33a2fb75f5_Class36 ( obj_460c7589_6272_4607_a579_9ee515c92732 o )  ) ):named c30))
(assert (! (exists ((o Int)) ( type_c443080f_affe_472f_bf20_1b33a2fb75f5_Class37 ( obj_460c7589_6272_4607_a579_9ee515c92732 o )  ) ):named c31))
(assert (! (exists ((o Int)) (and ( type_c443080f_affe_472f_bf20_1b33a2fb75f5_Class38 ( obj_460c7589_6272_4607_a579_9ee515c92732 o )  )  ( type_c443080f_affe_472f_bf20_1b33a2fb75f5_Class2 ( obj_460c7589_6272_4607_a579_9ee515c92732 o )  ) )):named c32))
(assert (! (exists ((o Int)) ( type_c443080f_affe_472f_bf20_1b33a2fb75f5_Class39 ( obj_460c7589_6272_4607_a579_9ee515c92732 o )  ) ):named c33))
(assert (! (exists ((o Int)) (and (and (and (and (and (and ( type_c443080f_affe_472f_bf20_1b33a2fb75f5_Class4 ( obj_460c7589_6272_4607_a579_9ee515c92732 o )  )  ( type_c443080f_affe_472f_bf20_1b33a2fb75f5_Class33 ( obj_460c7589_6272_4607_a579_9ee515c92732 o )  ) ) ( type_c443080f_affe_472f_bf20_1b33a2fb75f5_Class13 ( obj_460c7589_6272_4607_a579_9ee515c92732 o )  ) ) ( type_c443080f_affe_472f_bf20_1b33a2fb75f5_Class16 ( obj_460c7589_6272_4607_a579_9ee515c92732 o )  ) ) ( type_c443080f_affe_472f_bf20_1b33a2fb75f5_Class15 ( obj_460c7589_6272_4607_a579_9ee515c92732 o )  ) ) ( type_c443080f_affe_472f_bf20_1b33a2fb75f5_Class41 ( obj_460c7589_6272_4607_a579_9ee515c92732 o )  ) ) ( type_c443080f_affe_472f_bf20_1b33a2fb75f5_Class2 ( obj_460c7589_6272_4607_a579_9ee515c92732 o )  ) )):named c34))
(assert (! (exists ((o Int)) (and (and (and ( type_c443080f_affe_472f_bf20_1b33a2fb75f5_Class40 ( obj_460c7589_6272_4607_a579_9ee515c92732 o )  )  ( type_c443080f_affe_472f_bf20_1b33a2fb75f5_Class21 ( obj_460c7589_6272_4607_a579_9ee515c92732 o )  ) ) ( type_c443080f_affe_472f_bf20_1b33a2fb75f5_Class2 ( obj_460c7589_6272_4607_a579_9ee515c92732 o )  ) ) ( type_c443080f_affe_472f_bf20_1b33a2fb75f5_Class20 ( obj_460c7589_6272_4607_a579_9ee515c92732 o )  ) )):named c35))
(assert (! (exists ((o Int)) (and (and (and ( type_c443080f_affe_472f_bf20_1b33a2fb75f5_Class41 ( obj_460c7589_6272_4607_a579_9ee515c92732 o )  )  ( type_c443080f_affe_472f_bf20_1b33a2fb75f5_Class16 ( obj_460c7589_6272_4607_a579_9ee515c92732 o )  ) ) ( type_c443080f_affe_472f_bf20_1b33a2fb75f5_Class15 ( obj_460c7589_6272_4607_a579_9ee515c92732 o )  ) ) ( type_c443080f_affe_472f_bf20_1b33a2fb75f5_Class2 ( obj_460c7589_6272_4607_a579_9ee515c92732 o )  ) )):named c36))
(assert (! (exists ((o Int)) (and (and (and ( type_c443080f_affe_472f_bf20_1b33a2fb75f5_Class42 ( obj_460c7589_6272_4607_a579_9ee515c92732 o )  )  ( type_c443080f_affe_472f_bf20_1b33a2fb75f5_Class22 ( obj_460c7589_6272_4607_a579_9ee515c92732 o )  ) ) ( type_c443080f_affe_472f_bf20_1b33a2fb75f5_Class35 ( obj_460c7589_6272_4607_a579_9ee515c92732 o )  ) ) ( type_c443080f_affe_472f_bf20_1b33a2fb75f5_Class2 ( obj_460c7589_6272_4607_a579_9ee515c92732 o )  ) )):named c37))
(assert (! (exists ((o Int)) ( type_c443080f_affe_472f_bf20_1b33a2fb75f5_Class43 ( obj_460c7589_6272_4607_a579_9ee515c92732 o )  ) ):named c38))
(assert (! (exists ((o Int)) (and (and (and (and (and (and ( type_c443080f_affe_472f_bf20_1b33a2fb75f5_Class44 ( obj_460c7589_6272_4607_a579_9ee515c92732 o )  )  ( type_c443080f_affe_472f_bf20_1b33a2fb75f5_Class33 ( obj_460c7589_6272_4607_a579_9ee515c92732 o )  ) ) ( type_c443080f_affe_472f_bf20_1b33a2fb75f5_Class13 ( obj_460c7589_6272_4607_a579_9ee515c92732 o )  ) ) ( type_c443080f_affe_472f_bf20_1b33a2fb75f5_Class16 ( obj_460c7589_6272_4607_a579_9ee515c92732 o )  ) ) ( type_c443080f_affe_472f_bf20_1b33a2fb75f5_Class15 ( obj_460c7589_6272_4607_a579_9ee515c92732 o )  ) ) ( type_c443080f_affe_472f_bf20_1b33a2fb75f5_Class41 ( obj_460c7589_6272_4607_a579_9ee515c92732 o )  ) ) ( type_c443080f_affe_472f_bf20_1b33a2fb75f5_Class2 ( obj_460c7589_6272_4607_a579_9ee515c92732 o )  ) )):named c39))
(assert (! (exists ((o Int)) ( type_c443080f_affe_472f_bf20_1b33a2fb75f5_Class45 ( obj_460c7589_6272_4607_a579_9ee515c92732 o )  ) ):named c40))
(assert (! (exists ((o Int)) ( type_c443080f_affe_472f_bf20_1b33a2fb75f5_Class5 ( obj_460c7589_6272_4607_a579_9ee515c92732 o )  ) ):named c41))
(assert (! (exists ((o Int)) (and (and (and (and ( type_c443080f_affe_472f_bf20_1b33a2fb75f5_Class6 ( obj_460c7589_6272_4607_a579_9ee515c92732 o )  )  ( type_c443080f_affe_472f_bf20_1b33a2fb75f5_Class22 ( obj_460c7589_6272_4607_a579_9ee515c92732 o )  ) ) ( type_c443080f_affe_472f_bf20_1b33a2fb75f5_Class35 ( obj_460c7589_6272_4607_a579_9ee515c92732 o )  ) ) ( type_c443080f_affe_472f_bf20_1b33a2fb75f5_Class2 ( obj_460c7589_6272_4607_a579_9ee515c92732 o )  ) ) ( type_c443080f_affe_472f_bf20_1b33a2fb75f5_Class42 ( obj_460c7589_6272_4607_a579_9ee515c92732 o )  ) )):named c42))
(assert (! (exists ((o Int)) ( type_c443080f_affe_472f_bf20_1b33a2fb75f5_Class7 ( obj_460c7589_6272_4607_a579_9ee515c92732 o )  ) ):named c43))
(assert (! (exists ((o Int)) (and (and (and (and (and ( type_c443080f_affe_472f_bf20_1b33a2fb75f5_Class8 ( obj_460c7589_6272_4607_a579_9ee515c92732 o )  )  ( type_c443080f_affe_472f_bf20_1b33a2fb75f5_Class16 ( obj_460c7589_6272_4607_a579_9ee515c92732 o )  ) ) ( type_c443080f_affe_472f_bf20_1b33a2fb75f5_Class15 ( obj_460c7589_6272_4607_a579_9ee515c92732 o )  ) ) ( type_c443080f_affe_472f_bf20_1b33a2fb75f5_Class41 ( obj_460c7589_6272_4607_a579_9ee515c92732 o )  ) ) ( type_c443080f_affe_472f_bf20_1b33a2fb75f5_Class10 ( obj_460c7589_6272_4607_a579_9ee515c92732 o )  ) ) ( type_c443080f_affe_472f_bf20_1b33a2fb75f5_Class2 ( obj_460c7589_6272_4607_a579_9ee515c92732 o )  ) )):named c44))
(assert (! (exists ((o Int)) (and (and (and (and (and (and (and ( type_c443080f_affe_472f_bf20_1b33a2fb75f5_Class9 ( obj_460c7589_6272_4607_a579_9ee515c92732 o )  )  ( type_c443080f_affe_472f_bf20_1b33a2fb75f5_Class22 ( obj_460c7589_6272_4607_a579_9ee515c92732 o )  ) ) ( type_c443080f_affe_472f_bf20_1b33a2fb75f5_Class35 ( obj_460c7589_6272_4607_a579_9ee515c92732 o )  ) ) ( type_c443080f_affe_472f_bf20_1b33a2fb75f5_Class16 ( obj_460c7589_6272_4607_a579_9ee515c92732 o )  ) ) ( type_c443080f_affe_472f_bf20_1b33a2fb75f5_Class15 ( obj_460c7589_6272_4607_a579_9ee515c92732 o )  ) ) ( type_c443080f_affe_472f_bf20_1b33a2fb75f5_Class0 ( obj_460c7589_6272_4607_a579_9ee515c92732 o )  ) ) ( type_c443080f_affe_472f_bf20_1b33a2fb75f5_Class41 ( obj_460c7589_6272_4607_a579_9ee515c92732 o )  ) ) ( type_c443080f_affe_472f_bf20_1b33a2fb75f5_Class2 ( obj_460c7589_6272_4607_a579_9ee515c92732 o )  ) )):named c45))

 ;end of formula 